; benchmark generated from python API
(set-info :status unknown)
(declare-fun R_E1_V1 () Bool)
(declare-fun W_S1_V4 () Bool)
(declare-fun W_S1_V2 () Bool)
(declare-fun W_S1_V1 () Bool)
(declare-fun R_E1_V4 () Bool)
(declare-fun R_E1_V2 () Bool)
(declare-fun R_E1_V3 () Bool)
(declare-fun DISJ_W_S1_R_E1 () Bool)
(declare-fun R_S1_V4 () Bool)
(declare-fun R_S1_V2 () Bool)
(declare-fun R_S1_V3 () Bool)
(declare-fun R_S1_V1 () Bool)
(declare-fun DISJ_W_S1_R_S1 () Bool)
(declare-fun W_S1_V3 () Bool)
(assert
 (let (($x663 (forall ((V1_0 Int) )(forall ((V3_0 Int) )(forall ((V2_0 Int) )(forall ((V4_0 Int) )(forall ((MW_S1_V1 Bool) )(forall ((MW_S1_V3 Bool) )(forall ((MW_S1_V2 Bool) )(forall ((MW_S1_V4 Bool) )(forall ((S1_V3_!70 Int) )(forall ((S1_V4_!72 Int) )(forall ((S1_V1_!69 Int) )(forall ((S1_V2_!71 Int) )(forall ((E1_!68 Int) )(forall ((E1_!73 Int) )(forall ((E1_!74 Int) )(let (($x963 (= (ite MW_S1_V4 S1_V4_!72 V4_0) V4_0)))
 (let ((?x2195 (ite MW_S1_V2 S1_V2_!71 V2_0)))
 (let (($x4945 (= ?x2195 V2_0)))
 (let (($x4797 (= (ite MW_S1_V3 S1_V3_!70 V3_0) V3_0)))
 (let (($x577 (and (not (<= V2_0 E1_!68)) (>= (ite MW_S1_V1 S1_V1_!69 E1_!68) (+ (- 1) ?x2195)) (not (<= V2_0 E1_!73)) (not (<= E1_!74 (+ (- 1) V2_0))))))
 (let (($x3450 (not MW_S1_V4)))
 (let (($x3436 (or $x3450 W_S1_V4)))
 (let (($x5093 (= E1_!74 E1_!73)))
 (let (($x5652 (not (or (not R_E1_V1) (= V2_0 (+ 1 V1_0))))))
 (let (($x5900 (and (= E1_!68 E1_!73) (or $x5652 (= E1_!74 E1_!68)) (or $x5652 $x5093) (or (not MW_S1_V1) W_S1_V1) (or (not MW_S1_V2) W_S1_V2) $x3436)))
 (or (not $x5900) (not $x577) (and (= (ite MW_S1_V1 S1_V1_!69 E1_!68) (+ (- 1) V2_0)) $x4797 $x4945 $x963)))))))))))))
 )
 )
 )
 )
 )
 )
 )
 )
 )
 )
 )
 )
 )
 )
 ))
 (let (($x1215 (and W_S1_V4 R_E1_V4)))
 (let (($x5974 (and W_S1_V2 R_E1_V2)))
 (let (($x3677 (and W_S1_V1 R_E1_V1)))
 (let (($x3909 (= DISJ_W_S1_R_E1 (not (or $x3677 R_E1_V3 $x5974 $x1215)))))
 (let (($x1348 (and W_S1_V4 R_S1_V4)))
 (let (($x883 (and W_S1_V2 R_S1_V2)))
 (let (($x1929 (and W_S1_V1 R_S1_V1)))
 (let (($x4951 (= DISJ_W_S1_R_S1 (not (or $x1929 R_S1_V3 $x883 $x1348)))))
 (and (and W_S1_V3 $x4951 $x3909 $x663) R_E1_V1)))))))))))
(check-sat)
